data/mip_solutions/furman_sahinidis/transshipment/7sp-cm1_gurobi.log

Gurobi 6.5.2 (linux64) logging started Tue Jun  6 16:47:35 2017

Changed value of parameter LogFile to test_cases/mip_solutions/furman_sahinidis/transshipment/7sp-cm1_gurobi.log
   Prev: gurobi.log  Default: 
Changed value of parameter Threads to 1
   Prev: 0  Min: 0  Max: 1024  Default: 0
Optimize a model with 96 rows, 218 columns and 588 nonzeros
Coefficient statistics:
  Matrix range    [1e+00, 5e+02]
  Objective range [1e+00, 1e+00]
  Bounds range    [1e+00, 1e+00]
  RHS range       [1e+00, 7e+02]
Found heuristic solution: objective 14
Presolve removed 80 rows and 191 columns
Presolve time: 0.00s
Presolved: 16 rows, 27 columns, 63 nonzeros
Variable types: 21 continuous, 6 integer (6 binary)

Root relaxation: objective 9.429829e+00, 12 iterations, 0.00 seconds

    Nodes    |    Current Node    |     Objective Bounds      |     Work
 Expl Unexpl |  Obj  Depth IntInf | Incumbent    BestBd   Gap | It/Node Time

     0     0    9.42983    0    2   14.00000    9.42983  32.6%     -    0s
H    0     0                      10.0000000    9.42983  5.70%     -    0s

Explored 0 nodes (12 simplex iterations) in 0.00 seconds
Thread count was 1 (of 8 available processors)

Optimal solution found (tolerance 4.00e-02)
Best objective 1.000000000000e+01, best bound 1.000000000000e+01, gap 0.0%

Gurobi 6.5.2 (linux64) logging started Mon Jul 24 16:46:05 2017

Changed value of parameter LogFile to data/mip_solutions/furman_sahinidis/transshipment/7sp-cm1_gurobi.log
   Prev: gurobi.log  Default: 
Changed value of parameter Threads to 1
   Prev: 0  Min: 0  Max: 1024  Default: 0
Optimize a model with 96 rows, 218 columns and 588 nonzeros
Coefficient statistics:
  Matrix range    [1e+00, 5e+02]
  Objective range [1e+00, 1e+00]
  Bounds range    [1e+00, 1e+00]
  RHS range       [1e+00, 7e+02]
Found heuristic solution: objective 14
Presolve removed 80 rows and 191 columns
Presolve time: 0.00s
Presolved: 16 rows, 27 columns, 63 nonzeros
Variable types: 21 continuous, 6 integer (6 binary)

Root relaxation: objective 9.429829e+00, 12 iterations, 0.00 seconds

    Nodes    |    Current Node    |     Objective Bounds      |     Work
 Expl Unexpl |  Obj  Depth IntInf | Incumbent    BestBd   Gap | It/Node Time

     0     0    9.42983    0    2   14.00000    9.42983  32.6%     -    0s
H    0     0                      10.0000000    9.42983  5.70%     -    0s

Explored 0 nodes (12 simplex iterations) in 0.00 seconds
Thread count was 1 (of 8 available processors)

Optimal solution found (tolerance 4.00e-02)
Best objective 1.000000000000e+01, best bound 1.000000000000e+01, gap 0.0%

Gurobi 6.5.2 (linux64) logging started Mon Jul 24 16:58:59 2017

Changed value of parameter LogFile to data/mip_solutions/furman_sahinidis/transshipment/7sp-cm1_gurobi.log
   Prev: gurobi.log  Default: 
Changed value of parameter Threads to 1
   Prev: 0  Min: 0  Max: 1024  Default: 0
Optimize a model with 96 rows, 218 columns and 588 nonzeros
Coefficient statistics:
  Matrix range    [1e+00, 5e+02]
  Objective range [1e+00, 1e+00]
  Bounds range    [1e+00, 1e+00]
  RHS range       [1e+00, 7e+02]
Found heuristic solution: objective 14
Presolve removed 80 rows and 191 columns
Presolve time: 0.00s
Presolved: 16 rows, 27 columns, 63 nonzeros
Variable types: 21 continuous, 6 integer (6 binary)

Root relaxation: objective 9.429829e+00, 12 iterations, 0.00 seconds

    Nodes    |    Current Node    |     Objective Bounds      |     Work
 Expl Unexpl |  Obj  Depth IntInf | Incumbent    BestBd   Gap | It/Node Time

     0     0    9.42983    0    2   14.00000    9.42983  32.6%     -    0s
H    0     0                      10.0000000    9.42983  5.70%     -    0s

Explored 0 nodes (12 simplex iterations) in 0.00 seconds
Thread count was 1 (of 8 available processors)

Optimal solution found (tolerance 4.00e-02)
Best objective 1.000000000000e+01, best bound 1.000000000000e+01, gap 0.0%

Gurobi 6.5.2 (linux64) logging started Wed Jul 26 16:03:17 2017

Changed value of parameter LogFile to data/mip_solutions/furman_sahinidis/transshipment/7sp-cm1_gurobi.log
   Prev: gurobi.log  Default: 
Changed value of parameter Threads to 1
   Prev: 0  Min: 0  Max: 1024  Default: 0
Optimize a model with 96 rows, 218 columns and 588 nonzeros
Coefficient statistics:
  Matrix range    [1e+00, 5e+02]
  Objective range [1e+00, 1e+00]
  Bounds range    [1e+00, 1e+00]
  RHS range       [1e+00, 7e+02]
Found heuristic solution: objective 14
Presolve removed 80 rows and 191 columns
Presolve time: 0.00s
Presolved: 16 rows, 27 columns, 63 nonzeros
Variable types: 21 continuous, 6 integer (6 binary)

Root relaxation: objective 9.429829e+00, 12 iterations, 0.00 seconds

    Nodes    |    Current Node    |     Objective Bounds      |     Work
 Expl Unexpl |  Obj  Depth IntInf | Incumbent    BestBd   Gap | It/Node Time

     0     0    9.42983    0    2   14.00000    9.42983  32.6%     -    0s
H    0     0                      10.0000000    9.42983  5.70%     -    0s

Explored 0 nodes (12 simplex iterations) in 0.00 seconds
Thread count was 1 (of 8 available processors)

Optimal solution found (tolerance 4.00e-02)
Best objective 1.000000000000e+01, best bound 1.000000000000e+01, gap 0.0%
